10
1 0 46
2 0 4
2 1 17
3 0 53
3 1 33
3 2 4
4 0 33
4 1 57
4 2 29
4 3 29
5 0 10
5 1 49
5 2 45
5 3 27
5 4 51
6 0 66
6 1 74
6 2 29
6 3 69
6 4 41
6 5 60
7 0 27
7 1 78
7 2 32
7 3 77
7 4 80
7 5 20
7 6 50
8 0 57
8 1 19
8 2 17
8 3 67
8 4 8
8 5 53
8 6 72
8 7 65
9 0 61
9 1 75
9 2 71
9 3 47
9 4 12
9 5 66
9 6 42
9 7 38
9 8 75
